Version identifier: 22.1.0.0 | 2022-03-09 | 1a383f8ce
CPXPARAM_Threads                                 1
CPXPARAM_MIP_Strategy_VariableSelect             3
CPXPARAM_TimeLimit                               599.99998631699998
1 of 1 MIP starts provided solutions.
MIP start 'm1' defined initial solution with objective 1.0000.
Tried aggregator 2 times.
MIP Presolve eliminated 40 rows and 1 columns.
MIP Presolve added 36 rows and 9 columns.
MIP Presolve modified 56 coefficients.
Aggregator did 9 substitutions.
Reduced MIP has 1813 rows, 7800 columns, and 127220 nonzeros.
Reduced MIP has 7800 binaries, 0 generals, 0 SOSs, and 0 indicators.
Presolve time = 0.17 sec. (230.33 ticks)
Probing time = 0.02 sec. (21.63 ticks)
Tried aggregator 1 time.
Detecting symmetries...
MIP Presolve modified 14 coefficients.
Reduced MIP has 1813 rows, 7800 columns, and 127516 nonzeros.
Reduced MIP has 7800 binaries, 0 generals, 0 SOSs, and 0 indicators.
Presolve time = 0.12 sec. (173.93 ticks)
Probing time = 0.02 sec. (21.67 ticks)
Clique table members: 1195.
MIP emphasis: balance optimality and feasibility.
MIP search method: dynamic search.
Parallel mode: none, using 1 thread.
Root relaxation solution time = 2.08 sec. (2539.11 ticks)

        Nodes                                         Cuts/
   Node  Left     Objective  IInf  Best Integer    Best Bound    ItCnt     Gap

*     0+    0                            1.0000    45150.0000              --- 
      0     0      300.0000  1316        1.0000      300.0000     6056     --- 
      0     0      300.0000   394        1.0000       Cuts: 7     7093     --- 
      0     0      300.0000   637        1.0000     Cuts: 102    13265     --- 
*     0+    0                          142.0000      300.0000           111.27%
      0     0      300.0000   798      142.0000      Cuts: 25    18132  111.27%
*     0+    0                          231.0000      300.0000            29.87%
      0     0        cutoff            231.0000      300.0000    18132   29.87%
Detecting symmetries...
      0     2      300.0000   276      231.0000      300.0000    18132   29.87%
Elapsed time = 61.47 sec. (68528.66 ticks, tree = 0.01 MB, solutions = 3)
      1     3      300.0000  1216      231.0000      300.0000    30121   29.87%
      2     4      300.0000   390      231.0000      300.0000    35208   29.87%
      3     5      300.0000   742      231.0000      300.0000    42478   29.87%
      4     6      300.0000   389      231.0000      300.0000    42777   29.87%
      5     7      300.0000   498      231.0000      300.0000    43867   29.87%
      6     8      300.0000   378      231.0000      300.0000    46053   29.87%
      7     9      300.0000   860      231.0000      300.0000    56015   29.87%
      8    10      300.0000   377      231.0000      300.0000    56516   29.87%
      9    11      300.0000   630      231.0000      300.0000    64870   29.87%
     10    12      300.0000   399      231.0000      300.0000    65177   29.87%
Elapsed time = 83.25 sec. (91432.22 ticks, tree = 0.12 MB, solutions = 3)
     11    13      300.0000   606      231.0000      300.0000    69776   29.87%
     14    16      300.0000   416      231.0000      300.0000    75527   29.87%
     16    18      300.0000  1134      231.0000      300.0000    85186   29.87%
     18    20      300.0000   728      231.0000      300.0000    94439   29.87%
     21    23      300.0000   381      231.0000      300.0000    99092   29.87%
     22    24      300.0000   385      231.0000      300.0000   101931   29.87%
     23    25      300.0000   840      231.0000      300.0000   113340   29.87%
     25    27      300.0000   598      231.0000      300.0000   122402   29.87%
     27    29      300.0000   386      231.0000      300.0000   123070   29.87%
     28    30      300.0000   689      231.0000      300.0000   128105   29.87%
Elapsed time = 110.78 sec. (120245.42 ticks, tree = 0.38 MB, solutions = 3)
     30    32      300.0000   644      231.0000      300.0000   133247   29.87%
     31    33      300.0000   646      231.0000      300.0000   135573   29.87%
     33    35      300.0000   734      231.0000      300.0000   143212   29.87%
     35    37      300.0000   802      231.0000      300.0000   155449   29.87%
     36    38      300.0000   650      231.0000      300.0000   160817   29.87%
     37    39      300.0000   596      231.0000      300.0000   166273   29.87%
     38    40      300.0000   824      231.0000      300.0000   171925   29.87%
     40    42      300.0000   698      231.0000      300.0000   179012   29.87%
     41    43      300.0000   631      231.0000      300.0000   184020   29.87%
     42    44      300.0000   757      231.0000      300.0000   192098   29.87%
Elapsed time = 138.32 sec. (148445.97 ticks, tree = 0.55 MB, solutions = 3)
     44    46      300.0000   548      231.0000      300.0000   199621   29.87%
     45    47      300.0000   637      231.0000      300.0000   210933   29.87%
     46    48      300.0000   554      231.0000      300.0000   215497   29.87%
     47    49      300.0000   717      231.0000      300.0000   224541   29.87%
     49    51      300.0000   538      231.0000      300.0000   226976   29.87%
     50    52      300.0000   452      231.0000      300.0000   230297   29.87%
     51    53      300.0000   688      231.0000      300.0000   238356   29.87%
     54    56      300.0000   441      231.0000      300.0000   240339   29.87%
     56    58      300.0000   612      231.0000      300.0000   248780   29.87%
     59    61      300.0000   349      231.0000      300.0000   253975   29.87%
Elapsed time = 160.13 sec. (170363.80 ticks, tree = 0.79 MB, solutions = 3)
     60    62      300.0000   355      231.0000      300.0000   257752   29.87%
     62    64      300.0000   341      231.0000      300.0000   262115   29.87%
     64    66      300.0000   450      231.0000      300.0000   267163   29.87%
     67    68      298.9119   825      231.0000      300.0000   292629   29.87%
     68    69      300.0000   409      231.0000      300.0000   300482   29.87%
     69    70      300.0000   479      231.0000      300.0000   310492   29.87%
     71    72      300.0000   395      231.0000      300.0000   314131   29.87%
     72    73      300.0000   543      231.0000      300.0000   320152   29.87%
     74    75      300.0000   594      231.0000      300.0000   321633   29.87%
     76    77      300.0000   580      231.0000      300.0000   323288   29.87%
Elapsed time = 184.06 sec. (194910.05 ticks, tree = 0.99 MB, solutions = 3)
     78    79      300.0000   551      231.0000      300.0000   325669   29.87%
     80    80      300.0000   390      231.0000      300.0000   328515   29.87%
     83    83      300.0000   443      231.0000      300.0000   331061   29.87%
     86    85      299.5588   632      231.0000      300.0000   335522   29.87%
     89    88      300.0000   470      231.0000      300.0000   337463   29.87%
     91    90      300.0000   399      231.0000      300.0000   339658   29.87%
     94    93      300.0000   402      231.0000      300.0000   342016   29.87%
     96    95      300.0000   396      231.0000      300.0000   343734   29.87%
     98    97      300.0000   452      231.0000      300.0000   345636   29.87%
    100    98      300.0000   429      231.0000      300.0000   347162   29.87%
Elapsed time = 196.78 sec. (208656.48 ticks, tree = 1.05 MB, solutions = 3)
    103   101      300.0000   416      231.0000      300.0000   349494   29.87%
    106   103      300.0000   406      231.0000      300.0000   352296   29.87%
    109   106      300.0000   357      231.0000      300.0000   353688   29.87%
    110   106      298.5238   413      231.0000      300.0000   355766   29.87%
    112   107      298.5741   474      231.0000      300.0000   358369   29.87%
    115   109      298.5714   476      231.0000      300.0000   360830   29.87%
    118   112      300.0000   366      231.0000      300.0000   362474   29.87%
    121   114      298.5949   455      231.0000      300.0000   364825   29.87%
    124   116      300.0000   406      231.0000      300.0000   366799   29.87%
    127   118      298.8571   490      231.0000      300.0000   368500   29.87%
Elapsed time = 207.41 sec. (220014.48 ticks, tree = 1.12 MB, solutions = 3)
    130   120      300.0000   362      231.0000      300.0000   370440   29.87%
    133   122      300.0000   390      231.0000      300.0000   373655   29.87%
    136   124      299.0000   464      231.0000      300.0000   376483   29.87%
    141   126      298.0714   480      231.0000      300.0000   378988   29.87%
    145   128      297.0000   495      231.0000      300.0000   380605   29.87%
    150   130    infeasible            231.0000      300.0000   382325   29.87%
    155   133      296.0000   434      231.0000      300.0000   383233   29.87%
    160   136      296.0000   385      231.0000      300.0000   384659   29.87%
    164   138      296.0000   430      231.0000      300.0000   385966   29.87%
    168   142      296.0000   357      231.0000      300.0000   387133   29.87%
Elapsed time = 217.68 sec. (231019.00 ticks, tree = 1.19 MB, solutions = 3)
    173   143      296.0000   380      231.0000      300.0000   389010   29.87%
    178   142    infeasible            231.0000      300.0000   391660   29.87%
    184   142    infeasible            231.0000      300.0000   394014   29.87%
    190   142    infeasible            231.0000      300.0000   396548   29.87%
    194   144      296.0000   297      231.0000      300.0000   398122   29.87%
    198   146      296.0000   280      231.0000      300.0000   399616   29.87%
    204   148      296.0000   261      231.0000      300.0000   401047   29.87%
    211   149      296.0000   269      231.0000      300.0000   402966   29.87%
    218   150      296.0000   265      231.0000      300.0000   404494   29.87%
    220   152      296.0000   247      231.0000      300.0000   404843   29.87%
Elapsed time = 229.05 sec. (242179.24 ticks, tree = 1.23 MB, solutions = 3)
    228   152    infeasible            231.0000      300.0000   406963   29.87%
    233   155    infeasible            231.0000      300.0000   408798   29.87%
    238   160      296.0000   241      231.0000      300.0000   410302   29.87%
    244   162      296.0000   245      231.0000      300.0000   412464   29.87%
    250   166      296.0000   220      231.0000      300.0000   413635   29.87%
    257   167      300.0000   336      231.0000      300.0000   418507   29.87%
    258   168      300.0000   506      231.0000      300.0000   421256   29.87%
    260   170      300.0000   444      231.0000      300.0000   424922   29.87%
    262   172      300.0000   509      231.0000      300.0000   428023   29.87%
    268   177      299.5161   742      231.0000      300.0000   438213   29.87%
Elapsed time = 248.48 sec. (262447.26 ticks, tree = 1.30 MB, solutions = 3)
    275   184      300.0000   423      231.0000      300.0000   445785   29.87%
    280   188      298.8140   507      231.0000      300.0000   453030   29.87%
    287   194      300.0000   238      231.0000      300.0000   461933   29.87%
    295   200      300.0000   374      231.0000      300.0000   471877   29.87%
    300   203      300.0000   324      231.0000      300.0000   477803   29.87%
    307   210      300.0000   319      231.0000      300.0000   486140   29.87%
    314   217      300.0000   298      231.0000      300.0000   495097   29.87%
    322   222      298.7273   420      231.0000      300.0000   505422   29.87%
    331   229      300.0000   245      231.0000      300.0000   513074   29.87%
    345   238      297.0000   366      231.0000      300.0000   521476   29.87%
Elapsed time = 286.02 sec. (303027.85 ticks, tree = 1.49 MB, solutions = 3)
    360   242    infeasible            231.0000      300.0000   530132   29.87%
    377   249      297.0000   322      231.0000      300.0000   537455   29.87%
    404   250      300.0000   243      231.0000      300.0000   548667   29.87%
    410   254      298.0000   504      231.0000      300.0000   556182   29.87%
    420   262      296.0000   548      231.0000      300.0000   563090   29.87%
    436   264    infeasible            231.0000      300.0000   569185   29.87%
    452   266    infeasible            231.0000      300.0000   576471   29.87%
    467   273      300.0000   244      231.0000      300.0000   586614   29.87%
    477   281      298.0000   272      231.0000      300.0000   593783   29.87%
    491   289      296.0000   392      231.0000      300.0000   600445   29.87%
Elapsed time = 328.66 sec. (347100.62 ticks, tree = 1.67 MB, solutions = 3)
    509   291      296.0000   411      231.0000      300.0000   607733   29.87%
    527   291      296.0000   265      231.0000      300.0000   617396   29.87%
    540   293      297.0000   578      231.0000      300.0000   624289   29.87%
    551   300      297.0000   442      231.0000      300.0000   630199   29.87%
    563   311      297.0000   412      231.0000      300.0000   635352   29.87%
    576   320      297.0000   320      231.0000      300.0000   641863   29.87%
    591   329      297.0000   313      231.0000      300.0000   647996   29.87%
    604   331      298.0000   563      231.0000      300.0000   657555   29.87%
    613   338      297.0000   505      231.0000      300.0000   663685   29.87%
    624   344      296.0000   404      231.0000      300.0000   669087   29.87%
Elapsed time = 369.02 sec. (388396.16 ticks, tree = 1.85 MB, solutions = 3)
    640   348    infeasible            231.0000      300.0000   676543   29.87%
    659   355      296.0000   281      231.0000      300.0000   682879   29.87%
    680   363      295.0000   269      231.0000      300.0000   688918   29.87%
    690   366      297.0000   500      231.0000      300.0000   697548   29.87%
    702   375      296.0000   423      231.0000      300.0000   703208   29.87%
    719   380      296.0000   370      231.0000      300.0000   709548   29.87%
    741   383      296.0000   388      231.0000      300.0000   716334   29.87%
    765   388      295.0000   266      231.0000      300.0000   724079   29.87%
    779   392      298.0000   462      231.0000      300.0000   733024   29.87%
    793   398      296.0000   536      231.0000      300.0000   740209   29.87%
Elapsed time = 408.01 sec. (428025.53 ticks, tree = 2.02 MB, solutions = 3)
    806   405      296.0000   378      231.0000      300.0000   745013   29.87%
    826   411      296.0000   293      231.0000      300.0000   751167   29.87%
    844   418      299.1515   538      231.0000      300.0000   759682   29.87%
    856   424      297.0000   500      231.0000      300.0000   768126   29.87%
    870   432      297.0000   336      231.0000      300.0000   773135   29.87%
    882   438      297.0000   257      231.0000      300.0000   778178   29.87%
    901   439      300.0000   239      231.0000      300.0000   785973   29.87%
    909   444      298.0000   515      231.0000      300.0000   794179   29.87%
    917   448    infeasible            231.0000      300.0000   800829   29.87%
    924   449      298.0000   381      231.0000      300.0000   805688   29.87%
Elapsed time = 447.23 sec. (468513.07 ticks, tree = 2.19 MB, solutions = 3)
    933   454    infeasible            231.0000      300.0000   813834   29.87%
    948   455    infeasible            231.0000      300.0000   822808   29.87%
    962   457      298.0000   362      231.0000      300.0000   831294   29.87%
    978   463      298.0000   263      231.0000      300.0000   838605   29.87%
    997   463      298.0000   284      231.0000      300.0000   845778   29.87%
*  1000+  461                          270.0000      300.0000            11.11%
   1000   462      298.0000   213      270.0000      300.0000   846310   11.11%
   1013   463      298.0000   275      270.0000      300.0000   855423   11.11%
   1030   462    infeasible            270.0000      300.0000   864086   11.11%
   1043   465      298.0000   496      270.0000      300.0000   871114   11.11%
   1054   473      297.0000   595      270.0000      300.0000   878000   11.11%
Elapsed time = 487.03 sec. (509709.29 ticks, tree = 2.27 MB, solutions = 4)
   1070   476      296.0000   418      270.0000      300.0000   884106   11.11%
   1084   478      296.0000   410      270.0000      300.0000   892132   11.11%
   1099   478      298.5762   513      270.0000      300.0000   902064   11.11%
   1110   484    infeasible            270.0000      300.0000   908261   11.11%
   1124   490      296.0000   327      270.0000      300.0000   914991   11.11%
   1141   493      296.0000   292      270.0000      300.0000   922926   11.11%
   1155   497      297.0000   601      270.0000      300.0000   929328   11.11%
   1165   504      296.0000   416      270.0000      300.0000   935653   11.11%
   1182   512      296.0000   323      270.0000      300.0000   941909   11.11%
   1200   516      296.0000   319      270.0000      300.0000   949072   11.11%
Elapsed time = 527.73 sec. (551605.69 ticks, tree = 2.43 MB, solutions = 4)
   1219   515    infeasible            270.0000      300.0000   959275   11.11%
   1239   519      296.0000   241      270.0000      300.0000   967162   11.11%
   1263   523      296.0000   293      270.0000      300.0000   975039   11.11%
   1291   523      296.0000   243      270.0000      300.0000   983664   11.11%
Starting limited solution polishing.
   1307   530      297.0000   558      270.0000      300.0000   990393   11.11%
   1319   534      299.5510   561      270.0000      300.0000   999232   11.11%
   1325   538      300.0000   298      270.0000      300.0000  1008400   11.11%
   1332   543      300.0000   249      270.0000      300.0000  1018242   11.11%
   1342   548      297.0000   512      270.0000      300.0000  1026516   11.11%
   1354   555    infeasible            270.0000      300.0000  1033609   11.11%
Elapsed time = 566.09 sec. (592054.41 ticks, tree = 2.56 MB, solutions = 4)
   1366   559    infeasible            270.0000      300.0000  1041574   11.11%
   1380   566      296.0000   419      270.0000      300.0000  1049864   11.11%
   1394   572      296.0000   490      270.0000      300.0000  1057653   11.11%
   1407   581      296.0000   452      270.0000      300.0000  1062027   11.11%
   1429   585      296.0000   319      270.0000      300.0000  1069514   11.11%
   1451   589      300.0000   293      270.0000      300.0000  1076506   11.11%
   1460   595      297.0000   529      270.0000      300.0000  1084860   11.11%
   1473   603      296.0000   466      270.0000      300.0000  1090871   11.11%

Clique cuts applied:  29
Zero-half cuts applied:  24
Lift and project cuts applied:  1
Gomory fractional cuts applied:  3

Root node processing (before b&c):
  Real time             =   61.33 sec. (68421.68 ticks)
Sequential b&c:
  Real time             =  538.68 sec. (559030.69 ticks)
                          ------------
Total (root+branch&cut) =  600.00 sec. (627452.37 ticks)
Primal:	270
Dual:	300
Status:	Feasible
Time:	600.08
Sequence:
	19
	5
	14
	10
	18
	0
	18
	10
	12
	5
	20
	0
	20
	8
	12
	5
	23
	0
	18
	10
	12
	5
	21
	2
	20
	5
	12
	11
	5
	12
	8
	14
	7
	5
	12
	8
	20
	0
	18
	5
	14
	8
	6
	14
	5
	2
	20
	5
	13
	10
	12
	5
	10
	0
	12
	8
	18
	1
	19
	5
	14
	5
	18
	2
	18
	7
	17
	5
	12
	8
	18
	1
	18
	6
	17
	5
	18
	4
	19
	5
	14
	8
	18
	1
	19
	10
	12
	5
	18
	2
	20
	5
	16
	6
	18
	2
	20
	5
	13
	8
	20
	1
	18
	9
	12
	5
	20
	4
	19
	5
	16
	5
	20
	3
	18
	5
	17
	5
	18
	4
	18
	5
	16
	7
	18
	2
	20
	5
	13
	10
	18
	1
	18
	9
	12
	5
	20
	2
	18
	6
	12
	5
	18
	4
	19
	5
	12
	8
	20
	0
	18
	10
	12
	5
	23
	0
	18
	8
	14
	5
	19
	4
	18
	5
	12
	7
	12
	8
	14
	5
	13
	10
	12
	5
	18
	4
	7
	12
	8
	18
	1
	18
	8
	14
	6
	12
	5
	8
	12
	7
	16
	5
	12
	5
	8
	12
	5
	10
	14
	5
	9
	12
	5
	5
	17
	5
	12
	10
	5
	12
	10
	13
	5
	16
	5
	20
	3
	5
	14
	5
	8
	14
	5
	8
	15
	5
	5
	14
	8
	12
	5
	17
	7
	5
	16
	5
	12
	6
	8
	14
	5
	20
	0
	18
	5
	17
	5
	12
	7
	12
	8
	18
	1
	23
	6
	12
	5
	18
	4
	21
	5
	16
	5
	20
	3
	20
	5
	16
	5
	7
